c nIsolatedPIs 0
c maxPI 128
p cnf 680 1657
c gate 129 23 25 0
23 -129 0
25 -129 0
-23 -25 129 0
c gate 130 -23 -25 0
-23 -130 0
-25 -130 0
23 25 130 0
c gate 131 -129 -130 0
-129 -131 0
-130 -131 0
129 130 131 0
c gate 132 21 131 0
21 -132 0
131 -132 0
-21 -131 132 0
c gate 133 -22 27 0
-22 -133 0
27 -133 0
22 -27 133 0
c gate 134 23 133 0
23 -134 0
133 -134 0
-23 -133 134 0
c gate 135 -129 -133 0
-129 -135 0
-133 -135 0
129 133 135 0
c gate 136 -21 -135 0
-21 -136 0
-135 -136 0
21 135 136 0
c gate 137 -134 136 0
-134 -137 0
136 -137 0
134 -136 137 0
c gate 138 -132 -137 0
-132 -138 0
-137 -138 0
132 137 138 0
c gate 139 -26 -138 0
-26 -139 0
-138 -139 0
26 138 139 0
c gate 140 -21 -131 0
-21 -140 0
-131 -140 0
21 131 140 0
c gate 141 -26 -27 0
-26 -141 0
-27 -141 0
26 27 141 0
c gate 142 26 27 0
26 -142 0
27 -142 0
-26 -27 142 0
c gate 143 -141 -142 0
-141 -143 0
-142 -143 0
141 142 143 0
c gate 144 -132 -143 0
-132 -144 0
-143 -144 0
132 143 144 0
c gate 145 -140 144 0
-140 -145 0
144 -145 0
140 -144 145 0
c gate 146 -22 -26 0
-22 -146 0
-26 -146 0
22 26 146 0
c gate 147 -21 130 0
-21 -147 0
130 -147 0
21 -130 147 0
c gate 148 -146 147 0
-146 -148 0
147 -148 0
146 -147 148 0
c gate 149 -145 -148 0
-145 -149 0
-148 -149 0
145 148 149 0
c gate 150 -139 149 0
-139 -150 0
149 -150 0
139 -149 150 0
c gate 151 -25 -150 0
-25 -151 0
-150 -151 0
25 150 151 0
c gate 152 -27 -151 0
-27 -152 0
-151 -152 0
27 151 152 0
c gate 153 -17 -18 0
-17 -153 0
-18 -153 0
17 18 153 0
c gate 154 -19 -20 0
-19 -154 0
-20 -154 0
19 20 154 0
c gate 155 153 154 0
153 -155 0
154 -155 0
-153 -154 155 0
c gate 156 -4 -5 0
-4 -156 0
-5 -156 0
4 5 156 0
c gate 157 -6 -7 0
-6 -157 0
-7 -157 0
6 7 157 0
c gate 158 156 157 0
156 -158 0
157 -158 0
-156 -157 158 0
c gate 159 -3 -128 0
-3 -159 0
-128 -159 0
3 128 159 0
c gate 160 -126 -127 0
-126 -160 0
-127 -160 0
126 127 160 0
c gate 161 159 160 0
159 -161 0
160 -161 0
-159 -160 161 0
c gate 162 158 161 0
158 -162 0
161 -162 0
-158 -161 162 0
c gate 163 -15 -16 0
-15 -163 0
-16 -163 0
15 16 163 0
c gate 164 -12 -14 0
-12 -164 0
-14 -164 0
12 14 164 0
c gate 165 163 164 0
163 -165 0
164 -165 0
-163 -164 165 0
c gate 166 -8 -9 0
-8 -166 0
-9 -166 0
8 9 166 0
c gate 167 -10 -11 0
-10 -167 0
-11 -167 0
10 11 167 0
c gate 168 166 167 0
166 -168 0
167 -168 0
-166 -167 168 0
c gate 169 165 168 0
165 -169 0
168 -169 0
-165 -168 169 0
c gate 170 162 169 0
162 -170 0
169 -170 0
-162 -169 170 0
c gate 171 155 170 0
155 -171 0
170 -171 0
-155 -170 171 0
c gate 172 -124 -125 0
-124 -172 0
-125 -172 0
124 125 172 0
c gate 173 -122 -123 0
-122 -173 0
-123 -173 0
122 123 173 0
c gate 174 -120 -121 0
-120 -174 0
-121 -174 0
120 121 174 0
c gate 175 -117 -119 0
-117 -175 0
-119 -175 0
117 119 175 0
c gate 176 -115 -116 0
-115 -176 0
-116 -176 0
115 116 176 0
c gate 177 -113 -114 0
-113 -177 0
-114 -177 0
113 114 177 0
c gate 178 -111 -112 0
-111 -178 0
-112 -178 0
111 112 178 0
c gate 179 -109 -110 0
-109 -179 0
-110 -179 0
109 110 179 0
c gate 180 -93 -94 0
-93 -180 0
-94 -180 0
93 94 180 0
c gate 181 -30 -31 0
-30 -181 0
-31 -181 0
30 31 181 0
c gate 182 -29 181 0
-29 -182 0
181 -182 0
29 -181 182 0
c gate 183 -28 182 0
-28 -183 0
182 -183 0
28 -182 183 0
c gate 184 141 183 0
141 -184 0
183 -184 0
-141 -183 184 0
c gate 185 -32 -33 0
-32 -185 0
-33 -185 0
32 33 185 0
c gate 186 184 185 0
184 -186 0
185 -186 0
-184 -185 186 0
c gate 187 150 155 0
150 -187 0
155 -187 0
-150 -155 187 0
c gate 188 186 187 0
186 -188 0
187 -188 0
-186 -187 188 0
c gate 189 -91 -92 0
-91 -189 0
-92 -189 0
91 92 189 0
c gate 190 188 189 0
188 -190 0
189 -190 0
-188 -189 190 0
c gate 191 -84 -86 0
-84 -191 0
-86 -191 0
84 86 191 0
c gate 192 -82 -83 0
-82 -192 0
-83 -192 0
82 83 192 0
c gate 193 191 192 0
191 -193 0
192 -193 0
-191 -192 193 0
c gate 194 -89 -90 0
-89 -194 0
-90 -194 0
89 90 194 0
c gate 195 -87 -88 0
-87 -195 0
-88 -195 0
87 88 195 0
c gate 196 194 195 0
194 -196 0
195 -196 0
-194 -195 196 0
c gate 197 180 190 0
180 -197 0
190 -197 0
-180 -190 197 0
c gate 198 196 197 0
196 -198 0
197 -198 0
-196 -197 198 0
c gate 199 193 198 0
193 -199 0
198 -199 0
-193 -198 199 0
c gate 200 -80 -81 0
-80 -200 0
-81 -200 0
80 81 200 0
c gate 201 -76 -77 0
-76 -201 0
-77 -201 0
76 77 201 0
c gate 202 -78 -79 0
-78 -202 0
-79 -202 0
78 79 202 0
c gate 203 200 202 0
200 -203 0
202 -203 0
-200 -202 203 0
c gate 204 199 203 0
199 -204 0
203 -204 0
-199 -203 204 0
c gate 205 -201 204 0
-201 -205 0
204 -205 0
201 -204 205 0
c gate 206 200 -205 0
200 -206 0
-205 -206 0
-200 205 206 0
c gate 207 -73 -75 0
-73 -207 0
-75 -207 0
73 75 207 0
c gate 208 203 207 0
203 -208 0
207 -208 0
-203 -207 208 0
c gate 209 -65 -66 0
-65 -209 0
-66 -209 0
65 66 209 0
c gate 210 -54 -55 0
-54 -210 0
-55 -210 0
54 55 210 0
c gate 211 -51 -53 0
-51 -211 0
-53 -211 0
51 53 211 0
c gate 212 210 211 0
210 -212 0
211 -212 0
-210 -211 212 0
c gate 213 -60 -61 0
-60 -213 0
-61 -213 0
60 61 213 0
c gate 214 -62 -64 0
-62 -214 0
-64 -214 0
62 64 214 0
c gate 215 213 214 0
213 -215 0
214 -215 0
-213 -214 215 0
c gate 216 -58 -59 0
-58 -216 0
-59 -216 0
58 59 216 0
c gate 217 -56 -57 0
-56 -217 0
-57 -217 0
56 57 217 0
c gate 218 216 217 0
216 -218 0
217 -218 0
-216 -217 218 0
c gate 219 -67 -68 0
-67 -219 0
-68 -219 0
67 68 219 0
c gate 220 209 219 0
209 -220 0
219 -220 0
-209 -219 220 0
c gate 221 218 220 0
218 -221 0
220 -221 0
-218 -220 221 0
c gate 222 215 221 0
215 -222 0
221 -222 0
-215 -221 222 0
c gate 223 212 222 0
212 -223 0
222 -223 0
-212 -222 223 0
c gate 224 -49 -50 0
-49 -224 0
-50 -224 0
49 50 224 0
c gate 225 -47 -48 0
-47 -225 0
-48 -225 0
47 48 225 0
c gate 226 -45 -46 0
-45 -226 0
-46 -226 0
45 46 226 0
c gate 227 -43 -44 0
-43 -227 0
-44 -227 0
43 44 227 0
c gate 228 -40 -42 0
-40 -228 0
-42 -228 0
40 42 228 0
c gate 229 -38 -39 0
-38 -229 0
-39 -229 0
38 39 229 0
c gate 230 -36 -37 0
-36 -230 0
-37 -230 0
36 37 230 0
c gate 231 -34 -35 0
-34 -231 0
-35 -231 0
34 35 231 0
c gate 232 -13 -24 0
-13 -232 0
-24 -232 0
13 24 232 0
c gate 233 -215 220 0
-215 -233 0
220 -233 0
215 -220 233 0
c gate 234 226 227 0
226 -234 0
227 -234 0
-226 -227 234 0
c gate 235 -233 234 0
-233 -235 0
234 -235 0
233 -234 235 0
c gate 236 43 44 0
43 -236 0
44 -236 0
-43 -44 236 0
c gate 237 45 46 0
45 -237 0
46 -237 0
-45 -46 237 0
c gate 238 236 237 0
236 -238 0
237 -238 0
-236 -237 238 0
c gate 239 233 238 0
233 -239 0
238 -239 0
-233 -238 239 0
c gate 240 -235 -239 0
-235 -240 0
-239 -240 0
235 239 240 0
c gate 241 212 224 0
212 -241 0
224 -241 0
-212 -224 241 0
c gate 242 228 229 0
228 -242 0
229 -242 0
-228 -229 242 0
c gate 243 225 242 0
225 -243 0
242 -243 0
-225 -242 243 0
c gate 244 241 243 0
241 -244 0
243 -244 0
-241 -243 244 0
c gate 245 -240 244 0
-240 -245 0
244 -245 0
240 -244 245 0
c gate 246 222 -245 0
222 -246 0
-245 -246 0
-222 245 246 0
c gate 247 230 231 0
230 -247 0
231 -247 0
-230 -231 247 0
c gate 248 224 225 0
224 -248 0
225 -248 0
-224 -225 248 0
c gate 249 223 248 0
223 -249 0
248 -249 0
-223 -248 249 0
c gate 250 247 249 0
247 -250 0
249 -250 0
-247 -249 250 0
c gate 251 -2 -118 0
-2 -251 0
-118 -251 0
2 118 251 0
c gate 252 232 251 0
232 -252 0
251 -252 0
-232 -251 252 0
c gate 253 250 252 0
250 -253 0
252 -253 0
-250 -252 253 0
c gate 254 -246 253 0
-246 -254 0
253 -254 0
246 -253 254 0
c gate 255 -96 -107 0
-96 -255 0
-107 -255 0
96 107 255 0
c gate 256 -74 -85 0
-74 -256 0
-85 -256 0
74 85 256 0
c gate 257 -52 -63 0
-52 -257 0
-63 -257 0
52 63 257 0
c gate 258 256 -257 0
256 -258 0
-257 -258 0
-256 257 258 0
c gate 259 255 -258 0
255 -259 0
-258 -259 0
-255 258 259 0
c gate 260 -2 -259 0
-2 -260 0
-259 -260 0
2 259 260 0
c gate 261 254 260 0
254 -261 0
260 -261 0
-254 -260 261 0
c gate 262 232 -261 0
232 -262 0
-261 -262 0
-232 261 262 0
c gate 263 231 -262 0
231 -263 0
-262 -263 0
-231 262 263 0
c gate 264 230 -263 0
230 -264 0
-263 -264 0
-230 263 264 0
c gate 265 229 -264 0
229 -265 0
-264 -265 0
-229 264 265 0
c gate 266 228 -265 0
228 -266 0
-265 -266 0
-228 265 266 0
c gate 267 227 -266 0
227 -267 0
-266 -267 0
-227 266 267 0
c gate 268 226 -267 0
226 -268 0
-267 -268 0
-226 267 268 0
c gate 269 225 -268 0
225 -269 0
-268 -269 0
-225 268 269 0
c gate 270 224 -269 0
224 -270 0
-269 -270 0
-224 269 270 0
c gate 271 223 -270 0
223 -271 0
-270 -271 0
-223 270 271 0
c gate 272 -210 222 0
-210 -272 0
222 -272 0
210 -222 272 0
c gate 273 213 -216 0
213 -273 0
-216 -273 0
-213 216 273 0
c gate 274 214 -273 0
214 -274 0
-273 -274 0
-214 273 274 0
c gate 275 -272 274 0
-272 -275 0
274 -275 0
272 -274 275 0
c gate 276 -271 275 0
-271 -276 0
275 -276 0
271 -275 276 0
c gate 277 209 -276 0
209 -277 0
-276 -277 0
-209 276 277 0
c gate 278 -71 -72 0
-71 -278 0
-72 -278 0
71 72 278 0
c gate 279 219 278 0
219 -279 0
278 -279 0
-219 -278 279 0
c gate 280 -277 279 0
-277 -280 0
279 -280 0
277 -279 280 0
c gate 281 208 -280 0
208 -281 0
-280 -281 0
-208 280 281 0
c gate 282 206 -281 0
206 -282 0
-281 -282 0
-206 281 282 0
c gate 283 199 -282 0
199 -283 0
-282 -283 0
-199 282 283 0
c gate 284 -191 198 0
-191 -284 0
198 -284 0
191 -198 284 0
c gate 285 194 -284 0
194 -285 0
-284 -285 0
-194 284 285 0
c gate 286 -283 285 0
-283 -286 0
285 -286 0
283 -285 286 0
c gate 287 190 -286 0
190 -287 0
-286 -287 0
-190 286 287 0
c gate 288 180 -287 0
180 -288 0
-287 -288 0
-180 287 288 0
c gate 289 172 173 0
172 -289 0
173 -289 0
-172 -173 289 0
c gate 290 174 175 0
174 -290 0
175 -290 0
-174 -175 290 0
c gate 291 289 290 0
289 -291 0
290 -291 0
-289 -290 291 0
c gate 292 170 -291 0
170 -292 0
-291 -292 0
-170 291 292 0
c gate 293 176 177 0
176 -293 0
177 -293 0
-176 -177 293 0
c gate 294 -292 293 0
-292 -294 0
293 -294 0
292 -293 294 0
c gate 295 -106 -108 0
-106 -295 0
-108 -295 0
106 108 295 0
c gate 296 -104 -105 0
-104 -296 0
-105 -296 0
104 105 296 0
c gate 297 295 296 0
295 -297 0
296 -297 0
-295 -296 297 0
c gate 298 178 179 0
178 -298 0
179 -298 0
-178 -179 298 0
c gate 299 188 298 0
188 -299 0
298 -299 0
-188 -298 299 0
c gate 300 -297 299 0
-297 -300 0
299 -300 0
297 -299 300 0
c gate 301 294 -300 0
294 -301 0
-300 -301 0
-294 300 301 0
c gate 302 -102 -103 0
-102 -302 0
-103 -302 0
102 103 302 0
c gate 303 -100 -101 0
-100 -303 0
-101 -303 0
100 101 303 0
c gate 304 302 303 0
302 -304 0
303 -304 0
-302 -303 304 0
c gate 305 299 -304 0
299 -305 0
-304 -305 0
-299 304 305 0
c gate 306 301 -305 0
301 -306 0
-305 -306 0
-301 305 306 0
c gate 307 -98 -99 0
-98 -307 0
-99 -307 0
98 99 307 0
c gate 308 -95 -97 0
-95 -308 0
-97 -308 0
95 97 308 0
c gate 309 307 308 0
307 -309 0
308 -309 0
-307 -308 309 0
c gate 310 295 309 0
295 -310 0
309 -310 0
-295 -309 310 0
c gate 311 306 310 0
306 -311 0
310 -311 0
-306 -310 311 0
c gate 312 -288 311 0
-288 -312 0
311 -312 0
288 -311 312 0
c gate 313 306 -307 0
306 -313 0
-307 -313 0
-306 307 313 0
c gate 314 301 -302 0
301 -314 0
-302 -314 0
-301 302 314 0
c gate 315 295 -314 0
295 -315 0
-314 -315 0
-295 314 315 0
c gate 316 -313 315 0
-313 -316 0
315 -316 0
313 -315 316 0
c gate 317 -312 316 0
-312 -317 0
316 -317 0
312 -316 317 0
c gate 318 179 -317 0
179 -318 0
-317 -318 0
-179 317 318 0
c gate 319 178 -318 0
178 -319 0
-318 -319 0
-178 318 319 0
c gate 320 177 -319 0
177 -320 0
-319 -320 0
-177 319 320 0
c gate 321 176 -320 0
176 -321 0
-320 -321 0
-176 320 321 0
c gate 322 175 -321 0
175 -322 0
-321 -322 0
-175 321 322 0
c gate 323 174 -322 0
174 -323 0
-322 -323 0
-174 322 323 0
c gate 324 173 -323 0
173 -324 0
-323 -324 0
-173 323 324 0
c gate 325 172 -324 0
172 -325 0
-324 -325 0
-172 324 325 0
c gate 326 171 -325 0
171 -326 0
-325 -326 0
-171 325 326 0
c gate 327 156 -159 0
156 -327 0
-159 -327 0
-156 159 327 0
c gate 328 157 -327 0
157 -328 0
-327 -328 0
-157 327 328 0
c gate 329 166 -328 0
166 -329 0
-328 -329 0
-166 328 329 0
c gate 330 167 -329 0
167 -330 0
-329 -330 0
-167 329 330 0
c gate 331 164 -330 0
164 -331 0
-330 -331 0
-164 330 331 0
c gate 332 163 -331 0
163 -332 0
-331 -332 0
-163 331 332 0
c gate 333 153 -332 0
153 -333 0
-332 -333 0
-153 332 333 0
c gate 334 154 -333 0
154 -334 0
-333 -334 0
-154 333 334 0
c gate 335 -326 334 0
-326 -335 0
334 -335 0
326 -334 335 0
c gate 336 -25 -335 0
-25 -336 0
-335 -336 0
25 335 336 0
c gate 337 150 -336 0
150 -337 0
-336 -337 0
-150 336 337 0
c gate 338 152 -337 0
152 -338 0
-337 -338 0
-152 337 338 0
c gate 339 -25 27 0
-25 -339 0
27 -339 0
25 -27 339 0
c gate 340 150 339 0
150 -340 0
339 -340 0
-150 -339 340 0
c gate 341 335 340 0
335 -341 0
340 -341 0
-335 -340 341 0
c gate 342 -23 -341 0
-23 -342 0
-341 -342 0
23 341 342 0
c gate 343 -338 342 0
-338 -343 0
342 -343 0
338 -342 343 0
c gate 344 -69 -70 0
-69 -344 0
-70 -344 0
69 70 344 0
c gate 345 278 344 0
278 -345 0
344 -345 0
-278 -344 345 0
c gate 346 220 345 0
220 -346 0
345 -346 0
-220 -345 346 0
c gate 347 222 -345 0
222 -347 0
-345 -347 0
-222 345 347 0
c gate 348 -275 -347 0
-275 -348 0
-347 -348 0
275 347 348 0
c gate 349 249 345 0
249 -349 0
345 -349 0
-249 -345 349 0
c gate 350 234 349 0
234 -350 0
349 -350 0
-234 -349 350 0
c gate 351 242 350 0
242 -351 0
350 -351 0
-242 -350 351 0
c gate 352 253 351 0
253 -352 0
351 -352 0
-253 -351 352 0
c gate 353 -259 352 0
-259 -353 0
352 -353 0
259 -352 353 0
c gate 354 232 -353 0
232 -354 0
-353 -354 0
-232 353 354 0
c gate 355 231 -354 0
231 -355 0
-354 -355 0
-231 354 355 0
c gate 356 230 -355 0
230 -356 0
-355 -356 0
-230 355 356 0
c gate 357 229 -356 0
229 -357 0
-356 -357 0
-229 356 357 0
c gate 358 228 -357 0
228 -358 0
-357 -358 0
-228 357 358 0
c gate 359 227 -358 0
227 -359 0
-358 -359 0
-227 358 359 0
c gate 360 226 -359 0
226 -360 0
-359 -360 0
-226 359 360 0
c gate 361 225 -360 0
225 -361 0
-360 -361 0
-225 360 361 0
c gate 362 224 -361 0
224 -362 0
-361 -362 0
-224 361 362 0
c gate 363 223 345 0
223 -363 0
345 -363 0
-223 -345 363 0
c gate 364 -362 363 0
-362 -364 0
363 -364 0
362 -363 364 0
c gate 365 -348 -364 0
-348 -365 0
-364 -365 0
348 364 365 0
c gate 366 346 -365 0
346 -366 0
-365 -366 0
-346 365 366 0
c gate 367 -219 344 0
-219 -367 0
344 -367 0
219 -344 367 0
c gate 368 278 -367 0
278 -368 0
-367 -368 0
-278 367 368 0
c gate 369 -366 368 0
-366 -369 0
368 -369 0
366 -368 369 0
c gate 370 208 -369 0
208 -370 0
-369 -370 0
-208 369 370 0
c gate 371 206 -370 0
206 -371 0
-370 -371 0
-206 370 371 0
c gate 372 199 -371 0
199 -372 0
-371 -372 0
-199 371 372 0
c gate 373 285 -372 0
285 -373 0
-372 -373 0
-285 372 373 0
c gate 374 190 -373 0
190 -374 0
-373 -374 0
-190 373 374 0
c gate 375 180 -374 0
180 -375 0
-374 -375 0
-180 374 375 0
c gate 376 311 -375 0
311 -376 0
-375 -376 0
-311 375 376 0
c gate 377 316 -376 0
316 -377 0
-376 -377 0
-316 376 377 0
c gate 378 179 -377 0
179 -378 0
-377 -378 0
-179 377 378 0
c gate 379 178 -378 0
178 -379 0
-378 -379 0
-178 378 379 0
c gate 380 177 -379 0
177 -380 0
-379 -380 0
-177 379 380 0
c gate 381 176 -380 0
176 -381 0
-380 -381 0
-176 380 381 0
c gate 382 175 -381 0
175 -382 0
-381 -382 0
-175 381 382 0
c gate 383 174 -382 0
174 -383 0
-382 -383 0
-174 382 383 0
c gate 384 173 -383 0
173 -384 0
-383 -384 0
-173 383 384 0
c gate 385 172 -384 0
172 -385 0
-384 -385 0
-172 384 385 0
c gate 386 171 -385 0
171 -386 0
-385 -386 0
-171 385 386 0
c gate 387 334 -386 0
334 -387 0
-386 -387 0
-334 386 387 0
c gate 388 -25 -387 0
-25 -388 0
-387 -388 0
25 387 388 0
c gate 389 150 -388 0
150 -389 0
-388 -389 0
-150 388 389 0
c gate 390 152 -389 0
152 -390 0
-389 -390 0
-152 389 390 0
c gate 391 340 387 0
340 -391 0
387 -391 0
-340 -387 391 0
c gate 392 -23 -391 0
-23 -392 0
-391 -392 0
23 391 392 0
c gate 393 -390 392 0
-390 -393 0
392 -393 0
390 -392 393 0
c gate 394 -343 -393 0
-343 -394 0
-393 -394 0
343 393 394 0
c gate 395 343 393 0
343 -395 0
393 -395 0
-343 -393 395 0
c gate 396 -27 -150 0
-27 -396 0
-150 -396 0
27 150 396 0
c gate 397 23 -396 0
23 -397 0
-396 -397 0
-23 396 397 0
c gate 398 -21 -397 0
-21 -398 0
-397 -398 0
21 397 398 0
c gate 399 -28 29 0
-28 -399 0
29 -399 0
28 -29 399 0
c gate 400 398 -399 0
398 -400 0
-399 -400 0
-398 399 400 0
c gate 401 -395 400 0
-395 -401 0
400 -401 0
395 -400 401 0
c gate 402 -394 401 0
-394 -402 0
401 -402 0
394 -401 402 0
c gate 403 -343 398 0
-343 -403 0
398 -403 0
343 -398 403 0
c gate 404 32 399 0
32 -404 0
399 -404 0
-32 -399 404 0
c gate 405 -403 404 0
-403 -405 0
404 -405 0
403 -404 405 0
c gate 406 -402 -405 0
-402 -406 0
-405 -406 0
402 405 406 0
c gate 407 21 -130 0
21 -407 0
-130 -407 0
-21 130 407 0
c gate 408 396 407 0
396 -408 0
407 -408 0
-396 -407 408 0
c gate 409 181 185 0
181 -409 0
185 -409 0
-181 -185 409 0
c gate 410 -28 409 0
-28 -410 0
409 -410 0
28 -409 410 0
c gate 411 -408 410 0
-408 -411 0
410 -411 0
408 -410 411 0
c gate 412 -406 411 0
-406 -412 0
411 -412 0
406 -411 412 0
c gate 413 41 -52 0
41 -413 0
-52 -413 0
-41 52 413 0
c gate 414 -63 -413 0
-63 -414 0
-413 -414 0
63 413 414 0
c gate 415 -74 -414 0
-74 -415 0
-414 -415 0
74 414 415 0
c gate 416 -85 -415 0
-85 -416 0
-415 -416 0
85 415 416 0
c gate 417 -96 -416 0
-96 -417 0
-416 -417 0
96 416 417 0
c gate 418 -107 -417 0
-107 -418 0
-417 -418 0
107 417 418 0
c gate 419 -118 -418 0
-118 -419 0
-418 -419 0
118 418 419 0
c gate 420 -2 -419 0
-2 -420 0
-419 -420 0
2 419 420 0
c gate 421 -13 -420 0
-13 -421 0
-420 -421 0
13 420 421 0
c gate 422 -24 -421 0
-24 -422 0
-421 -422 0
24 421 422 0
c gate 423 247 -422 0
247 -423 0
-422 -423 0
-247 422 423 0
c gate 424 35 -36 0
35 -424 0
-36 -424 0
-35 36 424 0
c gate 425 -37 -424 0
-37 -425 0
-424 -425 0
37 424 425 0
c gate 426 -423 425 0
-423 -426 0
425 -426 0
423 -425 426 0
c gate 427 227 242 0
227 -427 0
242 -427 0
-227 -242 427 0
c gate 428 -426 427 0
-426 -428 0
427 -428 0
426 -427 428 0
c gate 429 39 -40 0
39 -429 0
-40 -429 0
-39 40 429 0
c gate 430 -42 -429 0
-42 -430 0
-429 -430 0
42 429 430 0
c gate 431 -43 -430 0
-43 -431 0
-430 -431 0
43 430 431 0
c gate 432 -44 -431 0
-44 -432 0
-431 -432 0
44 431 432 0
c gate 433 -428 432 0
-428 -433 0
432 -433 0
428 -432 433 0
c gate 434 225 226 0
225 -434 0
226 -434 0
-225 -226 434 0
c gate 435 -433 434 0
-433 -435 0
434 -435 0
433 -434 435 0
c gate 436 46 -47 0
46 -436 0
-47 -436 0
-46 47 436 0
c gate 437 -48 -436 0
-48 -437 0
-436 -437 0
48 436 437 0
c gate 438 -435 437 0
-435 -438 0
437 -438 0
435 -437 438 0
c gate 439 241 -438 0
241 -439 0
-438 -439 0
-241 438 439 0
c gate 440 50 212 0
50 -440 0
212 -440 0
-50 -212 440 0
c gate 441 53 -54 0
53 -441 0
-54 -441 0
-53 54 441 0
c gate 442 -55 -441 0
-55 -442 0
-441 -442 0
55 441 442 0
c gate 443 -440 442 0
-440 -443 0
442 -443 0
440 -442 443 0
c gate 444 -439 443 0
-439 -444 0
443 -444 0
439 -443 444 0
c gate 445 218 -444 0
218 -445 0
-444 -445 0
-218 444 445 0
c gate 446 57 -58 0
57 -446 0
-58 -446 0
-57 58 446 0
c gate 447 -59 -446 0
-59 -447 0
-446 -447 0
59 446 447 0
c gate 448 -445 447 0
-445 -448 0
447 -448 0
445 -447 448 0
c gate 449 209 215 0
209 -449 0
215 -449 0
-209 -215 449 0
c gate 450 -448 449 0
-448 -450 0
449 -450 0
448 -449 450 0
c gate 451 61 -62 0
61 -451 0
-62 -451 0
-61 62 451 0
c gate 452 -64 -451 0
-64 -452 0
-451 -452 0
64 451 452 0
c gate 453 -65 -452 0
-65 -453 0
-452 -453 0
65 452 453 0
c gate 454 -66 -453 0
-66 -454 0
-453 -454 0
66 453 454 0
c gate 455 -450 454 0
-450 -455 0
454 -455 0
450 -454 455 0
c gate 456 -67 -455 0
-67 -456 0
-455 -456 0
67 455 456 0
c gate 457 -68 -456 0
-68 -457 0
-456 -457 0
68 456 457 0
c gate 458 -69 -457 0
-69 -458 0
-457 -458 0
69 457 458 0
c gate 459 -70 -458 0
-70 -459 0
-458 -459 0
70 458 459 0
c gate 460 201 207 0
201 -460 0
207 -460 0
-201 -207 460 0
c gate 461 278 460 0
278 -461 0
460 -461 0
-278 -460 461 0
c gate 462 -459 461 0
-459 -462 0
461 -462 0
459 -461 462 0
c gate 463 72 -73 0
72 -463 0
-73 -463 0
-72 73 463 0
c gate 464 -75 -463 0
-75 -464 0
-463 -464 0
75 463 464 0
c gate 465 -76 -464 0
-76 -465 0
-464 -465 0
76 464 465 0
c gate 466 -77 -465 0
-77 -466 0
-465 -466 0
77 465 466 0
c gate 467 -462 466 0
-462 -467 0
466 -467 0
462 -466 467 0
c gate 468 203 -467 0
203 -468 0
-467 -468 0
-203 467 468 0
c gate 469 79 -80 0
79 -469 0
-80 -469 0
-79 80 469 0
c gate 470 -81 -469 0
-81 -470 0
-469 -470 0
81 469 470 0
c gate 471 -468 470 0
-468 -471 0
470 -471 0
468 -470 471 0
c gate 472 193 195 0
193 -472 0
195 -472 0
-193 -195 472 0
c gate 473 -471 472 0
-471 -473 0
472 -473 0
471 -472 473 0
c gate 474 83 -84 0
83 -474 0
-84 -474 0
-83 84 474 0
c gate 475 -86 -474 0
-86 -475 0
-474 -475 0
86 474 475 0
c gate 476 -87 -475 0
-87 -476 0
-475 -476 0
87 475 476 0
c gate 477 -88 -476 0
-88 -477 0
-476 -477 0
88 476 477 0
c gate 478 -473 477 0
-473 -478 0
477 -478 0
473 -477 478 0
c gate 479 189 194 0
189 -479 0
194 -479 0
-189 -194 479 0
c gate 480 -478 479 0
-478 -480 0
479 -480 0
478 -479 480 0
c gate 481 90 -91 0
90 -481 0
-91 -481 0
-90 91 481 0
c gate 482 -92 -481 0
-92 -482 0
-481 -482 0
92 481 482 0
c gate 483 -480 482 0
-480 -483 0
482 -483 0
480 -482 483 0
c gate 484 -93 -483 0
-93 -484 0
-483 -484 0
93 483 484 0
c gate 485 -94 -484 0
-94 -485 0
-484 -485 0
94 484 485 0
c gate 486 309 -485 0
309 -486 0
-485 -486 0
-309 485 486 0
c gate 487 97 -98 0
97 -487 0
-98 -487 0
-97 98 487 0
c gate 488 -99 -487 0
-99 -488 0
-487 -488 0
99 487 488 0
c gate 489 -486 488 0
-486 -489 0
488 -489 0
486 -488 489 0
c gate 490 304 -489 0
304 -490 0
-489 -490 0
-304 489 490 0
c gate 491 101 -102 0
101 -491 0
-102 -491 0
-101 102 491 0
c gate 492 -103 -491 0
-103 -492 0
-491 -492 0
103 491 492 0
c gate 493 -490 492 0
-490 -493 0
492 -493 0
490 -492 493 0
c gate 494 179 297 0
179 -494 0
297 -494 0
-179 -297 494 0
c gate 495 -493 494 0
-493 -495 0
494 -495 0
493 -494 495 0
c gate 496 105 -106 0
105 -496 0
-106 -496 0
-105 106 496 0
c gate 497 -108 -496 0
-108 -497 0
-496 -497 0
108 496 497 0
c gate 498 -109 -497 0
-109 -498 0
-497 -498 0
109 497 498 0
c gate 499 -110 -498 0
-110 -499 0
-498 -499 0
110 498 499 0
c gate 500 -495 499 0
-495 -500 0
499 -500 0
495 -499 500 0
c gate 501 -111 -500 0
-111 -501 0
-500 -501 0
111 500 501 0
c gate 502 -112 -501 0
-112 -502 0
-501 -502 0
112 501 502 0
c gate 503 294 -502 0
294 -503 0
-502 -503 0
-294 502 503 0
c gate 504 114 -115 0
114 -504 0
-115 -504 0
-114 115 504 0
c gate 505 -116 -504 0
-116 -505 0
-504 -505 0
116 504 505 0
c gate 506 -117 -505 0
-117 -506 0
-505 -506 0
117 505 506 0
c gate 507 -119 -506 0
-119 -507 0
-506 -507 0
119 506 507 0
c gate 508 -120 -507 0
-120 -508 0
-507 -508 0
120 507 508 0
c gate 509 -121 -508 0
-121 -509 0
-508 -509 0
121 508 509 0
c gate 510 289 -509 0
289 -510 0
-509 -510 0
-289 509 510 0
c gate 511 123 -124 0
123 -511 0
-124 -511 0
-123 124 511 0
c gate 512 -125 -511 0
-125 -512 0
-511 -512 0
125 511 512 0
c gate 513 -510 512 0
-510 -513 0
512 -513 0
510 -512 513 0
c gate 514 -503 513 0
-503 -514 0
513 -514 0
503 -513 514 0
c gate 515 32 -182 0
32 -515 0
-182 -515 0
-32 182 515 0
c gate 516 127 -128 0
127 -516 0
-128 -516 0
-127 128 516 0
c gate 517 -3 -516 0
-3 -517 0
-516 -517 0
3 516 517 0
c gate 518 -4 -517 0
-4 -518 0
-517 -518 0
4 517 518 0
c gate 519 -5 -518 0
-5 -519 0
-518 -519 0
5 518 519 0
c gate 520 -6 -519 0
-6 -520 0
-519 -520 0
6 519 520 0
c gate 521 -7 -520 0
-7 -521 0
-520 -521 0
7 520 521 0
c gate 522 -8 -521 0
-8 -522 0
-521 -522 0
8 521 522 0
c gate 523 -9 -522 0
-9 -523 0
-522 -523 0
9 522 523 0
c gate 524 -10 -523 0
-10 -524 0
-523 -524 0
10 523 524 0
c gate 525 -11 -524 0
-11 -525 0
-524 -525 0
11 524 525 0
c gate 526 165 -525 0
165 -526 0
-525 -526 0
-165 525 526 0
c gate 527 14 -15 0
14 -527 0
-15 -527 0
-14 15 527 0
c gate 528 -16 -527 0
-16 -528 0
-527 -528 0
16 527 528 0
c gate 529 -526 528 0
-526 -529 0
528 -529 0
526 -528 529 0
c gate 530 155 -529 0
155 -530 0
-529 -530 0
-155 529 530 0
c gate 531 18 -19 0
18 -531 0
-19 -531 0
-18 19 531 0
c gate 532 -20 -531 0
-20 -532 0
-531 -532 0
20 531 532 0
c gate 533 -530 532 0
-530 -533 0
532 -533 0
530 -532 533 0
c gate 534 -21 -533 0
-21 -534 0
-533 -534 0
21 533 534 0
c gate 535 -22 -534 0
-22 -535 0
-534 -535 0
22 534 535 0
c gate 536 -23 -535 0
-23 -536 0
-535 -536 0
23 535 536 0
c gate 537 -25 -536 0
-25 -537 0
-536 -537 0
25 536 537 0
c gate 538 -26 -537 0
-26 -538 0
-537 -538 0
26 537 538 0
c gate 539 -27 -538 0
-27 -539 0
-538 -539 0
27 538 539 0
c gate 540 -32 183 0
-32 -540 0
183 -540 0
32 -183 540 0
c gate 541 170 540 0
170 -541 0
540 -541 0
-170 -540 541 0
c gate 542 -539 541 0
-539 -542 0
541 -542 0
539 -541 542 0
c gate 543 -515 -542 0
-515 -543 0
-542 -543 0
515 542 543 0
c gate 544 188 -543 0
188 -544 0
-543 -544 0
-188 543 544 0
c gate 545 -514 544 0
-514 -545 0
544 -545 0
514 -544 545 0
c gate 546 170 460 0
170 -546 0
460 -546 0
-170 -460 546 0
c gate 547 204 546 0
204 -547 0
546 -547 0
-204 -546 547 0
c gate 548 -245 249 0
-245 -548 0
249 -548 0
245 -249 548 0
c gate 549 222 -548 0
222 -549 0
-548 -549 0
-222 548 549 0
c gate 550 -254 549 0
-254 -550 0
549 -550 0
254 -549 550 0
c gate 551 220 -550 0
220 -551 0
-550 -551 0
-220 550 551 0
c gate 552 547 -551 0
547 -552 0
-551 -552 0
-547 551 552 0
c gate 553 197 -199 0
197 -553 0
-199 -553 0
-197 199 553 0
c gate 554 -552 -553 0
-552 -554 0
-553 -554 0
552 553 554 0
c gate 555 309 -554 0
309 -555 0
-554 -555 0
-309 554 555 0
c gate 556 306 -555 0
306 -556 0
-555 -556 0
-306 555 556 0
c gate 557 294 299 0
294 -557 0
299 -557 0
-294 -299 557 0
c gate 558 170 557 0
170 -558 0
557 -558 0
-170 -557 558 0
c gate 559 -556 558 0
-556 -559 0
558 -559 0
556 -558 559 0
c gate 560 169 -292 0
169 -560 0
-292 -560 0
-169 292 560 0
c gate 561 187 -560 0
187 -561 0
-560 -561 0
-187 560 561 0
c gate 562 186 -561 0
186 -562 0
-561 -562 0
-186 561 562 0
c gate 563 -559 562 0
-559 -563 0
562 -563 0
559 -562 563 0
c gate 564 222 345 0
222 -564 0
345 -564 0
-222 -345 564 0
c gate 565 -351 564 0
-351 -565 0
564 -565 0
351 -564 565 0
c gate 566 547 -565 0
547 -566 0
-565 -566 0
-547 565 566 0
c gate 567 -349 -566 0
-349 -567 0
-566 -567 0
349 566 567 0
c gate 568 66 -567 0
66 -568 0
-567 -568 0
-66 567 568 0
c gate 569 -66 -349 0
-66 -569 0
-349 -569 0
66 349 569 0
c gate 570 565 569 0
565 -570 0
569 -570 0
-565 -569 570 0
c gate 571 -253 351 0
-253 -571 0
351 -571 0
253 -351 571 0
c gate 572 346 -571 0
346 -572 0
-571 -572 0
-346 571 572 0
c gate 573 -570 572 0
-570 -573 0
572 -573 0
570 -572 573 0
c gate 574 547 -573 0
547 -574 0
-573 -574 0
-547 573 574 0
c gate 575 -568 -574 0
-568 -575 0
-574 -575 0
568 574 575 0
c gate 576 299 306 0
299 -576 0
306 -576 0
-299 -306 576 0
c gate 577 309 576 0
309 -577 0
576 -577 0
-309 -576 577 0
c gate 578 199 -577 0
199 -578 0
-577 -578 0
-199 577 578 0
c gate 579 -575 -578 0
-575 -579 0
-578 -579 0
575 578 579 0
c gate 580 -197 -575 0
-197 -580 0
-575 -580 0
197 575 580 0
c gate 581 -306 -580 0
-306 -581 0
-580 -581 0
306 580 581 0
c gate 582 553 577 0
553 -582 0
577 -582 0
-553 -577 582 0
c gate 583 -581 -582 0
-581 -583 0
-582 -583 0
581 582 583 0
c gate 584 557 -583 0
557 -584 0
-583 -584 0
-557 583 584 0
c gate 585 -579 -584 0
-579 -585 0
-584 -585 0
579 584 585 0
c gate 586 169 -585 0
169 -586 0
-585 -586 0
-169 585 586 0
c gate 587 -188 -586 0
-188 -587 0
-586 -587 0
188 586 587 0
c gate 588 188 -585 0
188 -588 0
-585 -588 0
-188 585 588 0
c gate 589 291 -588 0
291 -589 0
-588 -589 0
-291 588 589 0
c gate 590 162 -589 0
162 -590 0
-589 -590 0
-162 589 590 0
c gate 591 -587 590 0
-587 -591 0
590 -591 0
587 -590 591 0
c gate 592 -186 585 0
-186 -592 0
585 -592 0
186 -585 592 0
c gate 593 -169 188 0
-169 -593 0
188 -593 0
169 -188 593 0
c gate 594 -592 -593 0
-592 -594 0
-593 -594 0
592 593 594 0
c gate 595 -591 594 0
-591 -595 0
594 -595 0
591 -594 595 0
c gate 596 -563 595 0
-563 -596 0
595 -596 0
563 -595 596 0
c gate 597 563 -595 0
563 -597 0
-595 -597 0
-563 595 597 0
c gate 598 161 -289 0
161 -598 0
-289 -598 0
-161 289 598 0
c gate 599 158 -598 0
158 -599 0
-598 -599 0
-158 598 599 0
c gate 600 169 -599 0
169 -600 0
-599 -600 0
-169 599 600 0
c gate 601 170 291 0
170 -601 0
291 -601 0
-170 -291 601 0
c gate 602 -221 -233 0
-221 -602 0
-233 -602 0
221 233 602 0
c gate 603 255 256 0
255 -603 0
256 -603 0
-255 -256 603 0
c gate 604 252 -603 0
252 -604 0
-603 -604 0
-252 603 604 0
c gate 605 250 -604 0
250 -605 0
-604 -605 0
-250 604 605 0
c gate 606 -246 -605 0
-246 -606 0
-605 -606 0
246 605 606 0
c gate 607 -235 248 0
-235 -607 0
248 -607 0
235 -248 607 0
c gate 608 212 -607 0
212 -608 0
-607 -608 0
-212 607 608 0
c gate 609 -606 608 0
-606 -609 0
608 -609 0
606 -608 609 0
c gate 610 -602 -609 0
-602 -610 0
-609 -610 0
602 609 610 0
c gate 611 547 610 0
547 -611 0
610 -611 0
-547 -610 611 0
c gate 612 193 -203 0
193 -612 0
-203 -612 0
-193 203 612 0
c gate 613 196 -612 0
196 -613 0
-612 -613 0
-196 612 613 0
c gate 614 197 -613 0
197 -614 0
-613 -614 0
-197 613 614 0
c gate 615 309 -614 0
309 -615 0
-614 -615 0
-309 614 615 0
c gate 616 -611 615 0
-611 -616 0
615 -616 0
611 -615 616 0
c gate 617 576 -616 0
576 -617 0
-616 -617 0
-576 616 617 0
c gate 618 301 -617 0
301 -618 0
-617 -618 0
-301 617 618 0
c gate 619 601 -618 0
601 -619 0
-618 -619 0
-601 618 619 0
c gate 620 -600 -619 0
-600 -620 0
-619 -620 0
600 619 620 0
c gate 621 -165 188 0
-165 -621 0
188 -621 0
165 -188 621 0
c gate 622 409 621 0
409 -622 0
621 -622 0
-409 -621 622 0
c gate 623 352 -603 0
352 -623 0
-603 -623 0
-352 603 623 0
c gate 624 242 -247 0
242 -624 0
-247 -624 0
-242 247 624 0
c gate 625 350 -624 0
350 -625 0
-624 -625 0
-350 624 625 0
c gate 626 212 -248 0
212 -626 0
-248 -626 0
-212 248 626 0
c gate 627 222 -626 0
222 -627 0
-626 -627 0
-222 626 627 0
c gate 628 -625 627 0
-625 -628 0
627 -628 0
625 -627 628 0
c gate 629 -233 345 0
-233 -629 0
345 -629 0
233 -345 629 0
c gate 630 -628 629 0
-628 -630 0
629 -630 0
628 -629 630 0
c gate 631 197 630 0
197 -631 0
630 -631 0
-197 -630 631 0
c gate 632 -623 631 0
-623 -632 0
631 -632 0
623 -631 632 0
c gate 633 547 -632 0
547 -633 0
-632 -633 0
-547 632 633 0
c gate 634 -614 -633 0
-614 -634 0
-633 -634 0
614 633 634 0
c gate 635 577 -634 0
577 -635 0
-634 -635 0
-577 634 635 0
c gate 636 304 -309 0
304 -636 0
-309 -636 0
-304 309 636 0
c gate 637 557 636 0
557 -637 0
636 -637 0
-557 -636 637 0
c gate 638 301 -637 0
301 -638 0
-637 -638 0
-301 637 638 0
c gate 639 -635 638 0
-635 -639 0
638 -639 0
635 -638 639 0
c gate 640 601 -639 0
601 -640 0
-639 -640 0
-601 639 640 0
c gate 641 -600 -621 0
-600 -641 0
-621 -641 0
600 621 641 0
c gate 642 -640 641 0
-640 -642 0
641 -642 0
640 -641 642 0
c gate 643 -622 -642 0
-622 -643 0
-642 -643 0
622 642 643 0
c gate 644 620 -643 0
620 -644 0
-643 -644 0
-620 643 644 0
c gate 645 -620 -642 0
-620 -645 0
-642 -645 0
620 642 645 0
c gate 646 165 -188 0
165 -646 0
-188 -646 0
-165 188 646 0
c gate 647 -150 184 0
-150 -647 0
184 -647 0
150 -184 647 0
c gate 648 409 -647 0
409 -648 0
-647 -648 0
-409 647 648 0
c gate 649 -646 648 0
-646 -649 0
648 -649 0
646 -648 649 0
c gate 650 -645 649 0
-645 -650 0
649 -650 0
645 -649 650 0
c gate 651 -644 650 0
-644 -651 0
650 -651 0
644 -650 651 0
c gate 652 -188 -222 0
-188 -652 0
-222 -652 0
188 222 652 0
c gate 653 -347 -652 0
-347 -653 0
-652 -653 0
347 652 653 0
c gate 654 170 -653 0
170 -654 0
-653 -654 0
-170 653 654 0
c gate 655 -98 171 0
-98 -655 0
171 -655 0
98 -171 655 0
c gate 656 246 655 0
246 -656 0
655 -656 0
-246 -655 656 0
c gate 657 188 656 0
188 -657 0
656 -657 0
-188 -656 657 0
c gate 658 -565 657 0
-565 -658 0
657 -658 0
565 -657 658 0
c gate 659 -654 -658 0
-654 -659 0
-658 -659 0
654 658 659 0
c gate 660 180 189 0
180 -660 0
189 -660 0
-180 -189 660 0
c gate 661 -659 660 0
-659 -661 0
660 -661 0
659 -660 661 0
c gate 662 254 -351 0
254 -662 0
-351 -662 0
-254 351 662 0
c gate 663 246 352 0
246 -663 0
352 -663 0
-246 -352 663 0
c gate 664 -662 -663 0
-662 -664 0
-663 -664 0
662 663 664 0
c gate 665 -1 -41 0
-1 -665 0
-41 -665 0
1 41 665 0
c gate 666 -97 665 0
-97 -666 0
665 -666 0
97 -665 666 0
c gate 667 256 666 0
256 -667 0
666 -667 0
-256 -666 667 0
c gate 668 259 667 0
259 -668 0
667 -668 0
-259 -667 668 0
c gate 669 -664 668 0
-664 -669 0
668 -669 0
664 -668 669 0
c gate 670 -661 -669 0
-661 -670 0
-669 -670 0
661 669 670 0
c gate 671 547 -670 0
547 -671 0
-670 -671 0
-547 670 671 0
c gate 672 170 -655 0
170 -672 0
-655 -672 0
-170 655 672 0
c gate 673 197 672 0
197 -673 0
672 -673 0
-197 -672 673 0
c gate 674 -671 -673 0
-671 -674 0
-673 -674 0
671 673 674 0
c gate 675 577 -674 0
577 -675 0
-674 -675 0
-577 674 675 0
c gate 676 -651 -675 0
-651 -676 0
-675 -676 0
651 675 676 0
c gate 677 -597 676 0
-597 -677 0
676 -677 0
597 -676 677 0
c gate 678 -596 677 0
-596 -678 0
677 -678 0
596 -677 678 0
c gate 679 -545 678 0
-545 -679 0
678 -679 0
545 -678 679 0
c gate 680 -412 679 0
-412 -680 0
679 -680 0
412 -679 680 0
c PO
-680 0
